Au Hg
 1.0000000000000000
    11.5399826689644573    0.0000000000000000    0.0000000000000000
     5.7699913344822287    9.9939181505553663    0.0000000000000000
     0.0000000000000000    0.0000000000000000   27.0667672948810178
 Au  Hg 
  64   1
Cartesian
  0.0026463651953114  0.0054125739784438  9.9486554013148289
  2.8823468256123128  0.0054205822058056  9.9486425928259266
  5.7682883861225447 -0.0059445972081371  9.9514593239661338
  8.6566929323915218 -0.0059419463875064  9.9514611294297168
  1.4424968461260030  2.5078506976593120  9.9518660318390531
  4.3289393226403599  2.4960881189943755  9.9516193396112254
  7.2124901667791779  2.4854439697048343  9.9576215377193407
 10.0960323163910388  2.4960866411168481  9.9516183001120329
  2.8916656159053375  4.9976983649378015  9.9477454748383369
  5.7747668462012172  4.9891578771447991  9.9534006437879370
  8.6502015288552396  4.9891544413133246  9.9534030894479724
 11.5333136485391403  4.9977054381273387  9.9477459330453879
  4.3349382766790949  7.4906917690399668  9.9438610900686779
  7.2124824303305664  7.4944889389285843  9.9419488876410913
 10.0900555417812292  7.4906760306541287  9.9438574780916298
 12.9824795073128865  7.4903302307003514  9.9382304653482407
  1.4424918957224060  0.8323292492966740 12.3239061497384110
  4.3304764670015592  0.8271082679569327 12.3236673377124522
  7.2124850086560324  0.8243087597546030 12.3312804763964170
 10.0945036270627195  0.8270979890591605 12.3236696343974810
  2.8892649255906031  3.3269984410984881 12.3222366969153114
  5.7705159010247984  3.3250141196478689 12.3292499399099036
  8.6544554314894793  3.3250273045898502 12.3292468522288701
 11.5357078237241701  3.3269961435141520 12.3222266904048254
  4.3307438727037049  5.8231330804053254 12.3267242602381035
  7.2124868254406360  5.8291507486429293 12.3228584360404092
 10.0942292105943423  5.8231230319583007 12.3267285775671187
 12.9824791570334224  5.8227095423958302 12.3124481731717683
  5.7717850312998067  8.3248316416768127 12.3146788791803043
  8.6531914987949321  8.3248259170812702 12.3146913945735612
 11.5403256050952567  8.3173232306854974 12.3106151303140692
 14.4246367190765863  8.3173256902786878 12.3106073004857706
 -0.0031313938164944  1.6530404922868569 14.7331906206675960
  2.8881328909682451  1.6530471404840092 14.7331873783908769
  5.7692143274460728  1.6538385047398181 14.7485971235488016
  8.6557608516958187  1.6538383902739624 14.7485905631335044
  1.4425020804817672  4.1632900768584333 14.7223330713613052
  4.3276672130574703  4.1465656534274098 14.7476898095439299
  7.2124839581973692  4.1523871234096621 14.7286165978803982
 10.0973072012860658  4.1465629194862652 14.7476909882312306
  2.8848552403293177  6.6447614756112685 14.7301295986233072
  5.7712686970319211  6.6507101985628125 14.7440482558983224
  8.6537167812394244  6.6507150933732166 14.7440524347630930
 11.5401143185244557  6.6447675425494870 14.7301295226195386
  4.3116250725424550  9.1355991156136991 14.7193777803790820
  7.2124885282026518  9.1429662617069045 14.7257057771049631
 10.1133578440324428  9.1355971501573325 14.7193672808646863
 12.9824702883599308  9.1472577637521333 14.7278005663735740
 -0.0700667108123537 -0.0602983206454878 17.0696747394943387
  2.9550658900708608 -0.0602935994726314 17.0696680262047522
  5.7944588490156761 -0.0149884112440762 17.1270212410703486
  8.6305165092515477 -0.0150043162350199 17.1270317826462417
  1.4424882051842363  2.5415457736323912 17.0810424062324415
  4.3295975448774220  2.4804038489028160 17.1352035146564532
  7.2124753731237323  2.4943089772266478 17.1163028301111275
 10.0953997355393561  2.4804138789183319 17.1352151209695549
  2.8944031440646656  4.9892570493133546 17.1283184971289160
  5.7779334087914673  4.9724344330858914 17.1132138220420380
  8.6470479196378225  4.9724395005417197 17.1132131556366893
 11.5305691921094358  4.9892426777375176 17.1283186740426991
  4.3149204764812890  7.4503799733484843 17.1260486991211920
  7.2124912304535584  7.4705224547664244 17.1271810472991710
 10.1100498224402457  7.4503810999416631 17.1260436154888644
 12.9824772845567242  7.4755614907533241 17.1020547394737399
  1.4425003479648841  0.7167107139337278 19.2990477494601187
