Au
 1.0000000000000000
    14.4249783362055712    0.0000000000000000    0.0000000000000000
     7.2124891681027856   12.4923976881942078    0.0000000000000000
     0.0000000000000000    0.0000000000000000   47.0667672948810178
 Au 
 100
Cartesian
  0.0000000000000006  0.0000000000000001 19.8379287539862084
  2.8849956672411143  0.0000000000000004 19.8379287539862084
  5.7699913344822287 -0.0000000000000009 19.8379287539862084
  8.6549870017233435  0.0000000000000002 19.8379287539862084
 11.5399826689644573  0.0000000000000002 19.8379287539862084
  1.4424978336205572  2.4984795376388416 19.8379287539862084
  4.3274935008616717  2.4984795376388416 19.8379287539862084
  7.2124891681027856  2.4984795376388416 19.8379287539862084
 10.0974848353439004  2.4984795376388416 19.8379287539862084
 12.9824805025850143  2.4984795376388416 19.8379287539862084
  2.8849956672411143  4.9969590752776831 19.8379287539862084
  5.7699913344822287  4.9969590752776831 19.8379287539862084
  8.6549870017233435  4.9969590752776831 19.8379287539862084
 11.5399826689644573  4.9969590752776831 19.8379287539862084
 14.4249783362055712  4.9969590752776831 19.8379287539862084
  4.3274935008616717  7.4954386129165247 19.8379287539862084
  7.2124891681027856  7.4954386129165247 19.8379287539862084
 10.0974848353439004  7.4954386129165247 19.8379287539862084
 12.9824805025850143  7.4954386129165247 19.8379287539862084
 15.8674761698261282  7.4954386129165247 19.8379287539862084
  5.7699913344822287  9.9939181505553663 19.8379287539862084
  8.6549870017233435  9.9939181505553663 19.8379287539862084
 11.5399826689644573  9.9939181505553663 19.8379287539862084
 14.4249783362055730  9.9939181505553663 19.8379287539862084
 17.3099740034466869  9.9939181505553663 19.8379287539862084
  1.4424978336205572  0.8328265125462806 22.3230389712812638
  4.3274935008616717  0.8328265125462783 22.3230389712812674
  7.2124891681027865  0.8328265125462799 22.3230389712812638
 10.0974848353439004  0.8328265125462814 22.3230389712812638
 12.9824805025850125  0.8328265125462790 22.3230389712812638
  2.8849956672411143  3.3313060501851219 22.3230389712812638
  5.7699913344822287  3.3313060501851219 22.3230389712812638
  8.6549870017233435  3.3313060501851219 22.3230389712812638
 11.5399826689644573  3.3313060501851233 22.3230389712812674
 14.4249783362055695  3.3313060501851219 22.3230389712812674
  4.3274935008616717  5.8297855878239639 22.3230389712812638
  7.2124891681027856  5.8297855878239639 22.3230389712812638
 10.0974848353439004  5.8297855878239639 22.3230389712812638
 12.9824805025850161  5.8297855878239639 22.3230389712812674
 15.8674761698261282  5.8297855878239639 22.3230389712812674
  5.7699913344822287  8.3282651254628064 22.3230389712812638
  8.6549870017233435  8.3282651254628064 22.3230389712812638
 11.5399826689644573  8.3282651254628064 22.3230389712812638
 14.4249783362055730  8.3282651254628064 22.3230389712812674
 17.3099740034466834  8.3282651254628064 22.3230389712812674
  7.2124891681027856 10.8267446631016462 22.3230389712812638
 10.0974848353439004 10.8267446631016462 22.3230389712812674
 12.9824805025850143 10.8267446631016462 22.3230389712812674
 15.8674761698261300 10.8267446631016462 22.3230389712812674
 18.7524718370672403 10.8267446631016462 22.3230389712812638
  0.0000000000000008  1.6656530250925607 24.7437283235997221
  2.8849956672411143  1.6656530250925630 24.7437283235997221
  5.7699913344822287  1.6656530250925610 24.7437283235997221
  8.6549870017233435  1.6656530250925614 24.7437283235997221
 11.5399826689644573  1.6656530250925610 24.7437283235997221
  1.4424978336205587  4.1641325627314023 24.7437283235997221
  4.3274935008616717  4.1641325627314023 24.7437283235997221
  7.2124891681027865  4.1641325627314023 24.7437283235997221
 10.0974848353439004  4.1641325627314023 24.7437283235997221
 12.9824805025850143  4.1641325627314023 24.7437283235997540
  2.8849956672411143  6.6626121003702439 24.7437283235997221
  5.7699913344822287  6.6626121003702439 24.7437283235997221
  8.6549870017233435  6.6626121003702439 24.7437283235997221
 11.5399826689644573  6.6626121003702439 24.7437283235997221
 14.4249783362055712  6.6626121003702439 24.7437283235997505
  4.3274935008616717  9.1610916380090845 24.7437283235997221
  7.2124891681027856  9.1610916380090845 24.7437283235997221
 10.0974848353439004  9.1610916380090845 24.7437283235997221
 12.9824805025850143  9.1610916380090845 24.7437283235997221
 15.8674761698261282  9.1610916380090845 24.7437283235997540
  5.7699913344822287 11.6595711756479279 24.7437283235997221
  8.6549870017233435 11.6595711756479279 24.7437283235997221
 11.5399826689644573 11.6595711756479279 24.7437283235997540
 14.4249783362055712 11.6595711756479279 24.7437283235997221
 17.3099740034466869 11.6595711756479279 24.7437283235997221
  0.0000000000000007 -0.0000000000000007 27.2288385408948059
  2.8849956672411139  0.0000000000000009 27.2288385408948059
  5.7699913344822287 -0.0000000000000000 27.2288385408948059
  8.6549870017233435  0.0000000000000001 27.2288385408948059
 11.5399826689644573  0.0000000000000004 27.2288385408948059
  1.4424978336205572  2.4984795376388416 27.2288385408948059
  4.3274935008616717  2.4984795376388416 27.2288385408948059
  7.2124891681027856  2.4984795376388416 27.2288385408948059
 10.0974848353439004  2.4984795376388416 27.2288385408948059
 12.9824805025850143  2.4984795376388407 27.2288385408948059
  2.8849956672411143  4.9969590752776831 27.2288385408948059
  5.7699913344822287  4.9969590752776831 27.2288385408948059
  8.6549870017233435  4.9969590752776831 27.2288385408948059
 11.5399826689644573  4.9969590752776831 27.2288385408948059
 14.4249783362055712  4.9969590752776831 27.2288385408948059
  4.3274935008616717  7.4954386129165247 27.2288385408948059
  7.2124891681027856  7.4954386129165247 27.2288385408948059
 10.0974848353439004  7.4954386129165247 27.2288385408948059
 12.9824805025850143  7.4954386129165247 27.2288385408948059
 15.8674761698261282  7.4954386129165247 27.2288385408948059
  5.7699913344822287  9.9939181505553663 27.2288385408948059
  8.6549870017233435  9.9939181505553663 27.2288385408948059
 11.5399826689644573  9.9939181505553663 27.2288385408948059
 14.4249783362055730  9.9939181505553663 27.2288385408948059
 17.3099740034466869  9.9939181505553663 27.2288385408948059
