Au Hg
 1.0000000000000000
    14.4249783362055712    0.0000000000000000    0.0000000000000000
     7.2124891681027856   12.4923976881942078    0.0000000000000000
     0.0000000000000000    0.0000000000000000   47.0667672948810178
 Au  Hg 
 100   4
Cartesian
  0.0000000000000000  0.0000000000000000 20.0000000000000000
  2.8849956672411143  0.0000000000000000 20.0000000000000000
  5.7699913344822287  0.0000000000000000 20.0000000000000000
  8.6549870017233435  0.0000000000000000 20.0000000000000000
 11.5399826689644573  0.0000000000000000 20.0000000000000000
  1.4424978336205572  2.4984795376388416 20.0000000000000000
  4.3274935008616717  2.4984795376388416 20.0000000000000000
  7.2124891681027856  2.4984795376388416 20.0000000000000000
 10.0974848353439004  2.4984795376388416 20.0000000000000000
 12.9824805025850143  2.4984795376388416 20.0000000000000000
  2.8849956672411143  4.9969590752776831 20.0000000000000000
  5.7699913344822287  4.9969590752776831 20.0000000000000000
  8.6549870017233435  4.9969590752776831 20.0000000000000000
 11.5399826689644573  4.9969590752776831 20.0000000000000000
 14.4249783362055712  4.9969590752776831 20.0000000000000000
  4.3274935008616717  7.4954386129165247 20.0000000000000000
  7.2124891681027856  7.4954386129165247 20.0000000000000000
 10.0974848353439004  7.4954386129165247 20.0000000000000000
 12.9824805025850143  7.4954386129165247 20.0000000000000000
 15.8674761698261282  7.4954386129165247 20.0000000000000000
  5.7699913344822287  9.9939181505553663 20.0000000000000000
  8.6549870017233435  9.9939181505553663 20.0000000000000000
 11.5399826689644573  9.9939181505553663 20.0000000000000000
 14.4249783362055730  9.9939181505553663 20.0000000000000000
 17.3099740034466869  9.9939181505553663 20.0000000000000000
  1.4424978336205572  0.8328265125462805 22.3555890982936738
  4.3274935008616717  0.8328265125462805 22.3555890982936738
  7.2124891681027865  0.8328265125462805 22.3555890982936738
 10.0974848353439004  0.8328265125462805 22.3555890982936738
 12.9824805025850125  0.8328265125462805 22.3555890982936738
  2.8849956672411143  3.3313060501851219 22.3555890982936738
  5.7699913344822287  3.3313060501851219 22.3555890982936738
  8.6549870017233435  3.3313060501851219 22.3555890982936738
 11.5399826689644573  3.3313060501851219 22.3555890982936738
 14.4249783362055695  3.3313060501851219 22.3555890982936738
  4.3274935008616717  5.8297855878239639 22.3555890982936738
  7.2124891681027856  5.8297855878239639 22.3555890982936738
 10.0974848353439004  5.8297855878239639 22.3555890982936738
 12.9824805025850161  5.8297855878239639 22.3555890982936738
 15.8674761698261282  5.8297855878239639 22.3555890982936738
  5.7699913344822287  8.3282651254628064 22.3555890982936738
  8.6549870017233435  8.3282651254628064 22.3555890982936738
 11.5399826689644573  8.3282651254628064 22.3555890982936738
 14.4249783362055730  8.3282651254628064 22.3555890982936738
 17.3099740034466834  8.3282651254628064 22.3555890982936738
  7.2124891681027856 10.8267446631016462 22.3555890982936738
 10.0974848353439004 10.8267446631016462 22.3555890982936738
 12.9824805025850143 10.8267446631016462 22.3555890982936738
 15.8674761698261300 10.8267446631016462 22.3555890982936738
 18.7524718370672403 10.8267446631016462 22.3555890982936738
 -0.0000000000000001  1.6656530250925610 24.7111781965873476
  2.8849956672411143  1.6656530250925610 24.7111781965873476
  5.7699913344822287  1.6656530250925610 24.7111781965873476
  8.6549870017233435  1.6656530250925610 24.7111781965873476
 11.5399826689644573  1.6656530250925610 24.7111781965873476
  1.4424978336205569  4.1641325627314023 24.7111781965873476
  4.3274935008616717  4.1641325627314023 24.7111781965873476
  7.2124891681027865  4.1641325627314023 24.7111781965873476
 10.0974848353439004  4.1641325627314023 24.7111781965873476
 12.9824805025850143  4.1641325627314023 24.7111781965873476
  2.8849956672411143  6.6626121003702439 24.7111781965873476
  5.7699913344822287  6.6626121003702439 24.7111781965873476
  8.6549870017233435  6.6626121003702439 24.7111781965873476
 11.5399826689644573  6.6626121003702439 24.7111781965873476
 14.4249783362055712  6.6626121003702439 24.7111781965873476
  4.3274935008616717  9.1610916380090845 24.7111781965873476
  7.2124891681027856  9.1610916380090845 24.7111781965873476
 10.0974848353439004  9.1610916380090845 24.7111781965873476
 12.9824805025850143  9.1610916380090845 24.7111781965873476
 15.8674761698261282  9.1610916380090845 24.7111781965873476
  5.7699913344822287 11.6595711756479279 24.7111781965873476
  8.6549870017233435 11.6595711756479279 24.7111781965873476
 11.5399826689644573 11.6595711756479279 24.7111781965873476
 14.4249783362055712 11.6595711756479279 24.7111781965873476
 17.3099740034466869 11.6595711756479279 24.7111781965873476
  0.0000000000000000  0.0000000000000000 27.0667672948810178
  2.8849956672411143  0.0000000000000000 27.0667672948810178
  5.7699913344822287  0.0000000000000000 27.0667672948810178
  8.6549870017233435  0.0000000000000000 27.0667672948810178
 11.5399826689644573  0.0000000000000000 27.0667672948810178
  1.4424978336205572  2.4984795376388416 27.0667672948810178
  4.3274935008616717  2.4984795376388416 27.0667672948810178
  7.2124891681027856  2.4984795376388416 27.0667672948810178
 10.0974848353439004  2.4984795376388416 27.0667672948810178
 12.9824805025850143  2.4984795376388416 27.0667672948810178
  2.8849956672411143  4.9969590752776831 27.0667672948810178
  5.7699913344822287  4.9969590752776831 27.0667672948810178
  8.6549870017233435  4.9969590752776831 27.0667672948810178
 11.5399826689644573  4.9969590752776831 27.0667672948810178
 14.4249783362055712  4.9969590752776831 27.0667672948810178
  4.3274935008616717  7.4954386129165247 27.0667672948810178
  7.2124891681027856  7.4954386129165247 27.0667672948810178
 10.0974848353439004  7.4954386129165247 27.0667672948810178
 12.9824805025850143  7.4954386129165247 27.0667672948810178
 15.8674761698261282  7.4954386129165247 27.0667672948810178
  5.7699913344822287  9.9939181505553663 27.0667672948810178
  8.6549870017233435  9.9939181505553663 27.0667672948810178
 11.5399826689644573  9.9939181505553663 27.0667672948810178
 14.4249783362055730  9.9939181505553663 27.0667672948810178
 17.3099740034466869  9.9939181505553663 27.0667672948810178
 -0.0575021663794428 -0.0331988912381582 29.5667672948810178
  2.9424978336205569 -0.0331988912381582 29.5667672948810178
  1.4424978336205572  2.5648773201151576 29.5667672948810178
  1.4424978336205572  0.8328265125462805 32.0162570376641966
