Au Hg
 1.0000000000000000
    14.4249783362055712    0.0000000000000000    0.0000000000000000
     7.2124891681027856   12.4923976881942078    0.0000000000000000
     0.0000000000000000    0.0000000000000000   47.0667672948810178
 Au  Hg 
 100   4
Cartesian
 -0.0018903235442086 -0.0010913788070999 19.8464264256502361
  2.8868859907853364 -0.0010913788070876 19.8464264256502005
  5.7740618121337643 -0.0011106451916103 19.8613725816311941
  8.6549870017233665 -0.0035406572085911 19.8838447594405601
 11.5359121913129510 -0.0011106451916372 19.8613725816312261
  1.4424978336205760  2.5006622952530715 19.8464264256502041
  4.3303641778044000  2.5001369237444897 19.8498112241915585
  7.2143810632427918  2.4988910172027543 19.8749710194805402
 10.0955929402039430  2.4988910172027459 19.8749710194805616
 12.9796098256423402  2.5001369237444764 19.8498112241915585
  2.8860690591163527  5.0010395349252699 19.8613725816312297
  5.7712936338077290  4.9983917647482681 19.8749710194805402
  8.6549870017233719  4.9969590752776947 19.8869750472721449
 11.5386803696390157  4.9983917647482610 19.8749710194805189
 14.4239049443303777  5.0010395349252699 19.8613725816312225
  4.3244272017729468  7.4972089415208290 19.8838447594405672
  7.2118995722882984  7.4935944438820528 19.8749710194805402
 10.0980744311584480  7.4935944438820661 19.8749710194805651
 12.9855468016737632  7.4972089415208432 19.8838447594406560
 15.8674761698261246  7.4990443584453237 19.8875855249178137
  5.7669942487059291  9.9909483360994322 19.8613725816312119
  8.6549870017233612  9.9906033783441170 19.8498112241915727
 11.5429797547407809  9.9909483360994553 19.8613725816312083
 14.4281010034331025  9.9921152777909832 19.8875855249177960
 17.3068513362191716  9.9921152777909636 19.8875855249178031
  1.4424978336205605  0.8328265125462816 22.3222710826340105
  4.3307052569278541  0.8346769163909352 22.3259665817639394
  7.2144320427329127  0.8305878481436985 22.3529836687451002
 10.0955419607137937  0.8305878481436743 22.3529836687451109
 12.9792687465188425  0.8346769163909077 22.3259665817639714
  2.8882040420109067  3.3331623106068644 22.3259665817639394
  5.7733376359261728  3.3332380382245810 22.3486987968209618
  8.6549870017233594  3.3291614473110087 22.3609405121971534
 11.5366363675205310  3.3332380382245885 22.3486987968209760
 14.4217699614357731  3.3331623106068657 22.3259665817639537
  4.3265261979335241  5.8325874988112965 22.3529836687451038
  7.2106318875327746  5.8308578892610239 22.3609405121971498
 10.0993421159139256  5.8308578892610319 22.3609405121971605
 12.9834478055131655  5.8325874988113124 22.3529836687451251
 15.8674761698261300  5.8285255326781700 22.3466360135940505
  5.7670811569239913  8.3277018788780524 22.3529836687450754
  8.6549870017233435  8.3244011493839007 22.3486987968209831
 11.5428928465227099  8.3277018788780772 22.3529836687451322
 14.4274487851311761  8.3296914398150381 22.3767607154017547
 17.3075035545211193  8.3296914398149955 22.3767607154017156
  7.2124857868064112 10.8230379988352503 22.3259665817639608
 10.0974882166402615 10.8230379988352752 22.3259665817639394
 12.9813892628185830 10.8273746906745583 22.3466360135940363
 15.8674761698261300 10.8238920343972183 22.3767607154016872
 18.7535630768336681 10.8273746906745263 22.3466360135940789
 -0.0042307968778763  1.6680956768088924 24.7376232617417102
  2.8892264641189946  1.6680956768088853 24.7376232617417280
  5.7797081185702046  1.6664456917315653 24.7604020710360579
  8.6549870017233452  1.6627798459255734 24.7831130429334365
 11.5302658848764761  1.6664456917315709 24.7604020710360686
  1.4424978336205634  4.1558720973876238 24.7395581469309782
  4.3330383623517648  4.1721512112751800 24.7604020710360579
  7.2135332834939296  4.1647353830335261 24.7794368829103355
 10.0964407199527670  4.1647353830335350 24.7794368829103604
 12.9769356410949079  4.1721512112751862 24.7604020710360615
  2.8824075878830659  6.6639223321399745 24.7800493062415264
  5.7675030883339984  6.6640486899537370 24.7831130429334010
  8.6549870017233435  6.6614064597659501 24.7794368829103746
 11.5424709151126876  6.6640486899537512 24.7831130429334330
 14.4275664155636143  6.6639223321399674 24.7800493062415370
  4.3250647671852258  9.1626778645952864 24.7800493062415370
  7.2083172455049054  9.1522803228262912 24.7604020710360864
 10.1016567579417718  9.1522803228263019 24.7604020710360579
 12.9849092362614655  9.1626778645953078 24.7800493062415512
 15.8674761698261264  9.1610916380090792 24.8094038532087602
  5.7771451073170343 11.6637014083198167 24.7395581469309853
  8.6549870017233417 11.6546858722152571 24.7376232617417315
 11.5328288961296472 11.6637014083198061 24.7395581469309462
 14.4248189905239812 11.6566747172919918 24.7800493062415050
 17.3101333491282858 11.6566747172919900 24.7800493062415299
 -0.0132774394052364 -0.0076657332147597 27.1667928739375597
  2.8982731066463567 -0.0076657332147564 27.1667928739375313
  5.8010363815923922  0.0254792594779311 27.1954321886099848
  8.6549870017233506 -0.0032422114121529 27.2668588190261687
 11.5089376218543205  0.0254792594779231 27.1954321886100416
  1.4424978336205647  2.5138110040683919 27.1667928739375562
  4.3397794265222869  2.5055728201262411 27.2296240445537556
  7.2204381229766375  2.5072792697812116 27.2649209515486319
 10.0895358804700557  2.5072792697812147 27.2649209515486390
 12.9701945769244151  2.5055728201262495 27.2296240445537805
  2.9225838767736962  5.0111052449978022 27.1954321886100523
  5.7815866035009478  4.9994432060607945 27.2649209515486106
  8.6549870017233381  4.9969590752776707 27.2785810661713697
 11.5283873999457409  4.9994432060607945 27.2649209515486461
 14.3873901266730204  5.0111052449978066 27.1954321886100594
  4.3246856634143178  7.4970597186226096 27.2668588190261687
  7.2161354822476529  7.4841547499910366 27.2649209515486319
 10.0938385211990500  7.4841547499910428 27.2649209515486604
 12.9852883400324011  7.4970597186226184 27.2668588190261900
 15.8674761698261459  7.5004430373709932 27.2920844240752416
  5.7765344969046577  9.9542927213573300 27.1954321886100310
  8.6549870017233630  9.9797315855805593 27.2296240445537983
 11.5334395065420470  9.9542927213573336 27.1954321886100381
 14.4293122949144710  9.9914159383281298 27.2920844240752309
 17.3056400447377818  9.9914159383281174 27.2920844240751954
 -1.7511754705967770 -1.0110416293473441 29.6411420025826402
  4.6361711378379340 -1.0110416293473325 29.6411420025826153
  1.4424978336205929  4.5205627963334925 29.6411420025826864
  1.4424978336205765  0.8328265125462804 29.6502899900152670
