Au Hg
 1.0000000000000000
    11.5399826689644573    0.0000000000000000    0.0000000000000000
     5.7699913344822287    9.9939181505553663    0.0000000000000000
     0.0000000000000000    0.0000000000000000   27.0667672948810178
 Au  Hg 
  64   1
Cartesian
 -0.0000315608500863 -0.0000183811369555  9.9011840189073812
  2.8850272489362059 -0.0000185318030199  9.9011843699857796
  5.7698983993699073 -0.0006427199220659  9.9023582852791172
  8.6550798110723886 -0.0006426176067966  9.9023582306235962
  1.4424976732301975  2.4985162605952294  9.9011844867687664
  4.3272014011279101  2.4983110031345523  9.9020991476030638
  7.2124891500824218  2.4982347087180585  9.9019722895899935
 10.0977768970546133  2.4983110818528074  9.9020997563109905
  2.8843927336646855  4.9972000653189790  9.9023589888538197
  5.7697792535194763  4.9970815848447661  9.9019728531070239
  8.6551991056739173  4.9970818672979096  9.9019725906395806
 11.5405856540191589  4.9971999853136175  9.9023588474913922
  4.3269832996181572  7.4958404124458227  9.9023583338191692
  7.2124893174051667  7.4957757174383906  9.9021006056071972
 10.0979948232666619  7.4958401353471737  9.9023589600606332
 12.9824805855133842  7.4954387815249337  9.9043250978111530
  1.4424980196796799  0.8328270591906467 12.3420921110068349
  4.3262535734191880  0.8326122776208975 12.3425444490899903
  7.2124891361500740  0.8326889309819756 12.3390206619939278
 10.0987248264708338  0.8326118908120375 12.3425443132816479
  2.8841900467141861  3.3303397028622688 12.3425453920133297
  5.7696091102118894  3.3310855689713526 12.3402664498921872
  8.6553691161755815  3.3310857999309942 12.3402665354293877
 11.5407891188594167  3.3303398428753725 12.3425451822039296
  4.3273745270049746  5.8298543917865970 12.3390207417939202
  7.2124893661959915  5.8302270847547621 12.3402662060904209
 10.0976043875019421  5.8298545937852193 12.3390212599438129
 12.9824805146408977  5.8280913413668740 12.3448309097330675
  5.7704254358869083  8.3294467029702606 12.3425445320166922
  8.6545531603619654  8.3294466412990786 12.3425446258567852
 11.5385156067012282  8.3291126703047222 12.3448301264664977
 14.4264456099458709  8.3291121939226578 12.3448301395577982
  0.0032658950950092  1.6637676382043529 14.7190212426483242
  2.8817298604653963  1.6637678040813630 14.7190215609413855
  5.7699211428520707  1.6648305423190586 14.7091410361964368
  8.6550575110013028  1.6648305594025614 14.7091401762709566
  1.4424979057173670  4.1548845086341988 14.7224631478775105
  4.3267453146823316  4.1644830842403930 14.7091411357028008
  7.2124895769644901  4.1641335056375404 14.7124594709363024
 10.0982334406137984  4.1644832403484990 14.7091410175892179
  2.8841034201363249  6.6631274152453299 14.7106996426027976
  5.7693136638189761  6.6630852297229906 14.7091401526333190
  8.6556651635331718  6.6630853556550900 14.7091406461400585
 11.5408753369796298  6.6631276062222540 14.7107000188008268
  4.3355022843240514  9.1657159860247095 14.7224611917801038
  7.2124891981508990  9.1648632617653405 14.7190203425163233
 10.0894763593036494  9.1657160240968292 14.7224619198865536
 12.9824804208824780  9.1600618043909332 14.7106987619581133
 -0.0413407943084563 -0.0238689289827076 17.1504154536179918
  2.9263353238658008 -0.0238687998665303 17.1504174174730366
  5.7882946561407582 -0.0001908382305475 17.1468189924710579
  8.6366835413819771 -0.0001907082129246 17.1468187322020604
  1.4424974178728796  2.5462137309863797 17.1504201168076769
  4.3463660113277198  2.5093755860424287 17.1350803027295946
  7.2124890256767964  2.5012864048376713 17.1521407783985822
 10.0786119796312637  2.5093761396762480 17.1350787517569607
  2.8939812411416002  5.0129057556129766 17.1468199530444778
  5.7724208693000207  4.9955559883297802 17.1521408809410012
  8.6525579638613088  4.9955564799182968 17.1521408770214450
 11.5309975020105480  5.0129064122663971 17.1468201621535989
  4.3181754453646635  7.4796829439945567 17.1468188525066374
  7.2124892182483382  7.4736449763034551 17.1350760887337223
 10.1068034258114849  7.4796831823055605 17.1468190908935618
 12.9824806286095509  7.4954391822336950 17.1545179805502954
  1.4424939116781226  0.8328176307458375 19.5271643616144601
