Au Hg
 1.0000000000000000
    11.5399826689644573    0.0000000000000000    0.0000000000000000
     5.7699913344822287    9.9939181505553663    0.0000000000000000
     0.0000000000000000    0.0000000000000000   27.0667672948810178
 Au  Hg 
  64   1
Cartesian
 -0.0000002790828257  0.0000003931200560  9.9347194126481426
  2.8908971686640377 -0.0003139126631292  9.9388086503558704
  5.7699931545639371  0.0024812969585132  9.9574011532404878
  8.6490825260191873 -0.0003075793268393  9.9388110111246970
  1.4451806111381282  2.5037465047554517  9.9388101513444749
  4.3270622614631220  2.4982304287658792  9.9544494044679332
  7.2129223457078400  2.4982226025689269  9.9544532740687099
 10.0948016583526563  2.5037482848471426  9.9388090644430864
  2.8871449456937643  4.9957178749918025  9.9574009980212210
  5.7699886879528259  4.9974606675406470  9.9544524167333091
  8.6528435945716335  4.9957209639022295  9.9573991573835094
 11.5399764688416884  5.0023182516321567  9.9361731990666904
  4.3242724446350387  7.4904799786814378  9.9388117244141068
  7.2157139560933610  7.4904791730267037  9.9388108964373725
 10.1021269831820799  7.4927597523520770  9.9361755561879654
 12.9778406125741768  7.4927568830338904  9.9361731706168097
  1.4478495138243024  0.8359192850148397 12.2987640588545499
  4.3272804012073482  0.8339117502264766 12.3310069286306430
  7.2127040594573080  0.8339178078832711 12.3310050609591482
 10.0921295976325247  0.8359169739331178 12.2987675933468026
  2.8858289449763479  3.3305793297710715 12.3310087722398638
  5.7699914660486780  3.3313091018346133 12.3264813777333426
  8.6541501507682508  3.3305785221191551 12.3310090225751576
 11.5399835307612317  3.3435782713463675 12.3011435756603529
  4.3285397307788696  5.8294254666272858 12.3310055676395613
  7.2114422174743895  5.8294250751331802 12.3310081343007543
 10.0987742200701494  5.8305356607252188 12.3211877123428941
 12.9811918374728474  5.8305351655411890 12.3211904098771861
  5.7699888661072496  8.3220838289349572 12.2987628289130058
  8.6656225149753148  8.3221267393406269 12.3011417301652912
 11.5399782169875120  8.3267693182169431 12.3211860888503661
 14.4143493431111978  8.3221245558400643 12.3011406696976326
  0.0000013064497693  1.7033626546120657 14.6726223030338652
  2.8828028440587370  1.6643885624679056 14.7540917092116270
  5.7699927315414081  1.6690194260237650 14.7444626287727978
  8.6571754851849878  1.6643861905468873 14.7540921274388666
  1.4468206654657401  4.1717336730586592 14.7420816207043988
  4.3304103638077089  4.1624474855910378 14.7444623280869767
  7.2095750200517248  4.1624561771851400 14.7444613228194026
 10.0931581471928080  4.1717343187324412 14.7420820387568696
  2.8805720514851609  6.6550642667789690 14.7420801205003666
  5.7699929958734089  6.6651362103055405 14.7540938924472123
  8.6594048860490638  6.6550611998926170 14.7420799948487513
 11.5399862154778123  6.6626084825090786 14.7427156556963546
  4.2948373046988513  9.1422380188557462 14.6726211407101239
  7.2451474125309563  9.1422411452830019 14.6726226674117779
 10.1062274409268884  9.1610375337878835 14.7420806985438038
 12.9737377834104066  9.1610386559352257 14.7420859383100300
  0.0000010488318066  0.0000013377810361 16.8986007661557558
  2.9013493178598595 -0.0067500732589862 17.1282730879069263
  5.7699954013587362  0.0040970050512350 17.1203062699409685
  8.6386289255698703 -0.0067487837149236 17.1282730062962081
  1.4448302011495950  2.5160187713929401 17.1282743723360440
  4.3233932225589182  2.4961119141607626 17.1241299019541131
  7.2165892249469383  2.4961080041506114 17.1241289411416666
 10.0951553387709865  2.5160164446042108 17.1282737659673359
  2.8885348545852287  4.9949109597272052 17.1203090983394723
  5.7699915659127630  5.0016950054982150 17.1241272479678024
  8.6514403774258017  4.9949134280617242 17.1203081766218475
 11.5399868253725781  4.9986968688876479 17.1225522538212438
  4.3134679935883717  7.4846484013455061 17.1282764638138794
  7.2265127153137216  7.4846502208222558 17.1282723483063890
 10.0989908820673797  7.4945709153294970 17.1225551064890311
 12.9809739986857178  7.4945653353584598 17.1225513275707364
  0.0000005537786521  0.0000026059231842 19.5378879213258791
