Au Hg
 1.0000000000000000
    11.5399826689644573    0.0000000000000000    0.0000000000000000
     5.7699913344822287    9.9939181505553663    0.0000000000000000
     0.0000000000000000    0.0000000000000000   27.0667672948810178
 Au  Hg 
  64   1
Cartesian
  0.0026451956998532  0.0054221083230432  9.9486412303161238
  2.8823567688537408  0.0054116121390967  9.9486346124782727
  5.7682848433237028 -0.0059394804352102  9.9514622019794281
  8.6566856787260278 -0.0059437469580197  9.9514534625067412
  1.4424903783582204  2.5078308217381862  9.9518497259156629
  4.3289528086573377  2.4960834811520463  9.9515875467688044
  7.2124854495224531  2.4854495456357522  9.9575917238171900
 10.0960412864454145  2.4960841502183517  9.9515854537802948
  2.8916597815233089  4.9976988551130912  9.9477363223585353
  5.7747500794317386  4.9891648296932800  9.9533765578511080
  8.6502168088238047  4.9891624038610161  9.9533864619232162
 11.5333087280212876  4.9976939592665772  9.9477302065905402
  4.3349163668664561  7.4906780618430080  9.9438721856797869
  7.2124907307180237  7.4944844197491358  9.9419232872028456
 10.0900632355261095  7.4906774618302974  9.9438685266880196
 12.9824841825634465  7.4903420819286639  9.9382356515721337
  1.4424739207065265  0.8323460152423660 12.3239012243303740
  4.3305037854511808  0.8270941278532178 12.3236664053935847
  7.2124699081706360  0.8243402168548717 12.3312535973305977
 10.0945144240087110  0.8270972319797179 12.3236633351985603
  2.8892421827084016  3.3270033747744625 12.3222161947308937
  5.7705324275162679  3.3250116755652774 12.3292343187254385
  8.6544377253942617  3.3250318336747688 12.3292395414705709
 11.5357361322753036  3.3269730166662792 12.3222108556087466
  4.3307088497222752  5.8231352206560256 12.3267198751016469
  7.2124987794819848  5.8291300073499670 12.3228653928511154
 10.0942409857928226  5.8231334964593229 12.3267258732384892
 12.9824868717501527  5.8227183673218379 12.3124629088817787
  5.7717623570852705  8.3248158015867659 12.3147090880053884
  8.6532102062592990  8.3248018141377464 12.3147059929749005
 11.5403087036920731  8.3173448427155687 12.3106637389221767
 14.4246506107979346  8.3173247854739500 12.3106452337347747
 -0.0030984477613825  1.6530313018396865 14.7331639897520166
  2.8880955459124080  1.6530564913941732 14.7331636422183170
  5.7691996383629061  1.6538218765390147 14.7485703050406514
  8.6557751667204652  1.6538443143403434 14.7485861894205890
  1.4425136735874888  4.1633012863799159 14.7223142492994370
  4.3276178313939093  4.1465622342064403 14.7476720558193488
  7.2125130847434056  4.1523602757385794 14.7286123212210676
 10.0973195447291548  4.1465751738120931 14.7476760051994180
  2.8848597925350505  6.6448043994718420 14.7301352441398592
  5.7712590032451745  6.6506878516080095 14.7440236120971129
  8.6537254229722578  6.6506580285145969 14.7440098458804698
 11.5401065277410328  6.6448385653153750 14.7301413348270103
  4.3116920471639393  9.1356147102741669 14.7194299283771617
  7.2124566586355430  9.1429225664690303 14.7256989821171960
 10.1133522789662038  9.1356004135123783 14.7194221090208437
 12.9824438102861883  9.1473060104595145 14.7278301471146928
 -0.0700072147645763 -0.0602732825744931 17.0696970005604811
  2.9549964572366005 -0.0602648876953495 17.0697109834944776
  5.7944345201937510 -0.0150018028508848 17.1270386873268805
  8.6305473045996735 -0.0149920456701391 17.1270447331794884
  1.4424970302437998  2.5416230008372018 17.0810300790976264
  4.3295504975028134  2.4804198605441741 17.1352111830757927
  7.2125023097461627  2.4942466959600478 17.1163017843093641
 10.0954144998685944  2.4804244542337215 17.1352050016887247
  2.8943853172780813  4.9893270507707932 17.1283049761721351
  5.7779404636683012  4.9723752366986442 17.1132213697212059
  8.6470343251283204  4.9723571164543836 17.1132121380664373
 11.5305887107477112  4.9893209636820215 17.1283150590311806
  4.3149779624210263  7.4504192593431364 17.1260722274186854
  7.2124778402682397  7.4704718793388389 17.1272033421814527
 10.1100146919923723  7.4504142083308968 17.1260711437028554
 12.9824745012738934  7.4756021455917736 17.1021061180586500
  1.4425052849033446  0.7165258590876772 19.2990662512467175
