Au Hg
 1.0000000000000000
    11.5399826689644573    0.0000000000000000    0.0000000000000000
     5.7699913344822287    9.9939181505553663    0.0000000000000000
     0.0000000000000000    0.0000000000000000   27.0667672948810178
 Au  Hg 
  64   1
Cartesian
  0.0000385091951189  0.0000188108762872  9.9487667572999730
  2.8849565643041069  0.0000207366135961  9.9487656810032963
  5.7707562515995683  0.0006448450202699  9.9486264817131929
  8.6542222132553590  0.0006429789454120  9.9486240747171557
  1.4424990974583389  2.4984333462991883  9.9487668476930899
  4.3284584970756006  2.4990384599980833  9.9480658511785567
  7.2124871835681699  2.4985648150410369  9.9510085890694722
 10.0965198619516130  2.4990381772501529  9.9480643117423107
  2.8859396154599555  4.9972993539585433  9.9486241608345996
  5.7700606832931713  4.9969129501466618  9.9510073415285518
  8.6549169148132439  4.9969168158090822  9.9510073109223285
 11.5390404126118451  4.9973018307852861  9.9486242948410499
  4.3276662980013514  7.4944554216238704  9.9486260406612530
  7.2124923668793270  7.4943301807121738  9.9480650818560221
 10.0973080106119237  7.4944534117682773  9.9486246447802458
 12.9824812795205506  7.4954386540928395  9.9454133211394389
  1.4424973443192866  0.8328284406191223 12.3223696377464549
  4.3288381893222496  0.8341502020133945 12.3198370641677037
  7.2124885561411620  0.8346868056056761 12.3260615215794083
 10.0961403924429138  0.8341523802689362 12.3198395816697985
  2.8868133786846619  3.3318081644387325 12.3198361790675825
  5.7701871230561856  3.3314175063251001 12.3249585441128904
  8.6547930775256585  3.3314176407560221 12.3249595348508887
 11.5381624807431713  3.3318052092240995 12.3198410754403849
  4.3291035027051263  5.8288554984294283 12.3260633179043602
  7.2124889407461668  5.8295614575865597 12.3249571387008636
 10.0958749233254981  5.8288558014569558 12.3260640225308595
 12.9824811484663236  5.8315041969446719 12.3169850255358178
  5.7704657966088266  8.3264370204307525 12.3198370807238877
  8.6545123067496714  8.3264370286202922 12.3198380271796832
 11.5414723256668541  8.3274069319890263 12.3169865103574576
 14.4234904533900909  8.3274066770084687 12.3169858149125808
 -0.0041734727631122  1.6680619893129573 14.7290199194458271
  2.8891682931242673  1.6680611279912996 14.7290225102096208
  5.7698638165885141  1.6671327662344797 14.7440545303115975
  8.6551161164578509  1.6671314578093668 14.7440512276874962
  1.4424971221584741  4.1827031606068497 14.7195794795202914
  4.3287121755003852  4.1632838633908360 14.7440552494858252
  7.2124879598405629  4.1641327393071803 14.7336560266734491
 10.0962662697499077  4.1632834772371252 14.7440512365424095
  2.8859126429276358  6.6620825386388987 14.7361853552708695
  5.7713371188608136  6.6619799067157759 14.7440524796237007
  8.6536423962956501  6.6619814938399786 14.7440543677545275
 11.5390638602184303  6.6620825601759268 14.7361826373839175
  4.3114114715883236  9.1518091977089995 14.7195811362436526
  7.2124894311050491  9.1562733502986173 14.7290217540356014
 10.1135676560718668  9.1518065336089656 14.7195786634413377
 12.9824815161429630  9.1621503671398266 14.7361844002315046
 -0.0655540232487987 -0.0378470646268814 17.0695768048945808
  2.9505514669945732 -0.0378489154363922 17.0695749833619281
  5.7923759799919319  0.0030930772739999 17.1286662062297026
  8.6326010575825443  0.0030946646954569 17.1286673335388571
  1.4424995961488896  2.5741763989168622 17.0695762528770629
  4.3326736661416563  2.5014714154114759 17.1275726318965269
  7.2124893504232297  2.5085426791215331 17.1172942413274498
 10.0923034276622587  2.5014689897276399 17.1275737414661577
  2.8988675703439521  5.0148004526531240 17.1286670151006639
  5.7787055479752674  4.9919270829863134 17.1172916296661626
  8.6462714098019191  4.9919288109903732 17.1172909120379835
 11.5261129798643100  5.0148019029648623 17.1286664031997660
  4.3189781990783569  7.4745029982198155 17.1286670555805109
  7.2124907500557169  7.4894541859215460 17.1275738086248523
 10.1059968893741061  7.4745032003606875 17.1286661390864410
 12.9824813170873590  7.4954368928948130 17.1141863408707700
  1.4424940067392127  0.8328258755830297 19.2953705163088891
