Au Hg
 1.0000000000000000
    11.5399826689644573    0.0000000000000000    0.0000000000000000
     5.7699913344822287    9.9939181505553663    0.0000000000000000
     0.0000000000000000    0.0000000000000000   27.0667672948810178
 Au  Hg 
  64   1
Cartesian
  0.0000843669408095  0.0000488356719965  9.9475570118758316
  2.8849942127461432 -0.0008688162858790  9.9476890725247138
  5.7699115373497172  0.0000455309878166  9.9475560112321091
  8.6549857729978186 -0.0007597069326033  9.9476316899800654
  1.4417438723231575  2.4989122449482926  9.9476910080697163
  4.3282455833940521  2.4989164277427327  9.9476895578829545
  7.2132260405862976  2.4989557213081910  9.9494497353372910
 10.0967503868720776  2.4989557546878567  9.9494508157670936
  2.8849972246483286  4.9968647055231283  9.9475543554575303
  5.7707688320557926  4.9973574351544263  9.9494496984868235
  8.6549876063862818  4.9969555537406860  9.9508974590229009
 11.5392026655017244  4.9973585411235710  9.9494500724906967
  4.3268363930566043  7.4958171163488636  9.9476330775226689
  7.2125303522970681  7.4945646582055137  9.9494512070641044
 10.0974432802610146  7.4945646799482804  9.9494504093442071
 12.9831380733356720  7.4958206995381342  9.9476323720352795
  1.4432057884401526  0.8332354964296211 12.3197866278303323
  4.3267857295431060  0.8332384755063970 12.3197928585590102
  7.2133116954464409  0.8318522892845349 12.3195820289247759
 10.0966625737881390  0.8318536026026591 12.3195818247940174
  2.8849972733675493  3.3304853294524022 12.3197924366670293
  5.7716276744992197  3.3322517715371691 12.3218979321036883
  8.6549877199895349  3.3324707379092993 12.3258069366414276
 11.5383430685819146  3.3322515117336566 12.3218954137723138
  4.3270630416975608  5.8309866081819424 12.3195830239683506
  7.2134978079299943  5.8292040351918821 12.3258060652948380
 10.0964760250578909  5.8292023772915034 12.3258073042689258
 12.9829107597672539  5.8309873135353527 12.3195824403903877
  5.7687378849734303  8.3280388993258452 12.3195789654632808
  8.6549847777881705  8.3263721855593538 12.3218967546271010
 11.5412365751037136  8.3280371132404909 12.3195794678479160
 14.4249773859871446  8.3282626307583350 12.3240624026417613
 -0.0103641665140347  1.6591104829094701 14.7263509618770616
  2.8849951348909517  1.6656562297526709 14.7330243203694646
  5.7803557970958535  1.6591088634067499 14.7263458646252587
  8.6549876582266556  1.6662550549475219 14.7354343151026317
  1.4429844052146867  4.1763776538963180 14.7263492342038234
  4.3270075883892236  4.1763810702254984 14.7263456776715014
  7.2121591094733635  4.1639443605725210 14.7447004059568947
 10.0978134804771305  4.1639433600241418 14.7447015664117203
  2.8849960887256922  6.6651091399467584 14.7408263980533505
  5.7705133120454510  6.6623090007349299 14.7354361644955745
  8.6549873246280384  6.6629920907211346 14.7447013400711846
 11.5394600346543896  6.6623105930217461 14.7354370710897840
  4.3253313495884163  9.1598425751994341 14.7408236937814614
  7.2016408975871906  9.1553869619467427 14.7263480847506489
 10.1083319417475135  9.1553873617206190 14.7263495053559144
 12.9846430432437927  9.1598429476323169 14.7408248829616131
 -0.0057944085856173 -0.0033456857518541 17.1268164897613921
  2.8849966313967745 -0.0731550845382111 17.0707787874686687
  5.7757860802071068 -0.0033458594937115 17.1268159224444219
  8.6549867796861779 -0.0078719933225122 17.1173922595634522
  1.3791427970822518  2.5350569684259754 17.0707775642447359
  4.3908480716940206  2.5350562293427394 17.0707812593683954
  7.2342002811889659  2.4934273403163960 17.1282316759032085
 10.0757723405513051  2.4934300798032973 17.1282316799822603
  2.8849943221857952  5.0036498990991305 17.1268154017353993
  5.7764750591362031  5.0182915492285547 17.1282317815449616
  8.6549889673088547  4.9969609138726296 17.1146655070185432
 11.5335014228473884  5.0182898130156124 17.1282317046168160
  4.3206785722896131  7.4993731635953731 17.1173907105433543
  7.1972581450679973  7.4791590358880953 17.1282315458925609
 10.1127145108507062  7.4791590447576279 17.1282293324213200
 12.9892956438763729  7.4993723803427708 17.1173911358312161
  2.8849946229903711  1.6656515666356171 19.3000347461359425
