Au Hg
 1.0000000000000000
    11.5399826689644573    0.0000000000000000    0.0000000000000000
     5.7699913344822287    9.9939181505553663    0.0000000000000000
     0.0000000000000000    0.0000000000000000   27.0667672948810178
 Au  Hg 
  64   1
Cartesian
 -0.0001954415687996 -0.0019324160952692  9.9010140961671222
  2.8851903691845489 -0.0019329696538201  9.9010136938389248
  5.7699616186751159 -0.0025003690467164  9.9017182560688450
  8.6550160223439949 -0.0025005624787573  9.9017186506654067
  1.4424971835601199  2.4954654306373771  9.9021759112688699
  4.3268086996728732  2.4965396870843350  9.8996582732060183
  7.2124887106083673  2.4966772151550307  9.8970298508023813
 10.0981692671185641  2.4965400571085272  9.8996588761534632
  2.8845941156078405  4.9948800073803730  9.9005360233743342
  5.7695898666573502  4.9949210447220427  9.8947112647279560
  8.6553883247531811  4.9949205512108641  9.8947114560592428
 11.5403838483543932  4.9948796787346570  9.9005355675434377
  4.3275917217770443  7.4939926959980276  9.8984326769872641
  7.2124889230381042  7.4936111318357321  9.8949186107744449
 10.0973858720529357  7.4939931851136672  9.8984320986857028
 12.9824804250920156  7.4925912387297009  9.9026550638501867
  1.4424976504330458  0.8238084111309817 12.3451391831007999
  4.3262616577387547  0.8232409798320155 12.3431230599361577
  7.2124895005646952  0.8244908923522236 12.3388181407042037
 10.0987168235222384  0.8232410644193603 12.3431229033006762
  2.8848602278264912  3.3221605359013937 12.3443449737979503
  5.7702780291701989  3.3230284127818814 12.3364364919327887
  8.6546999220624397  3.3230290418908406 12.3364358882005387
 11.5401179932089963  3.3221602134485200 12.3443450142805364
  4.3283876633633822  5.8207449711653823 12.3367285479852935
  7.2124892262536804  5.8230322371326269 12.3340778489467073
 10.0965899244562838  5.8207447241366141 12.3367280924734040
 12.9824804210935678  5.8189947538180773 12.3447184128363752
  5.7708466229055064  8.3207546410465145 12.3400966503702225
  8.6541314664852074  8.3207558362227445 12.3400968928432615
 11.5377558730191012  8.3191016465938752 12.3420610908419821
 14.4272054159741021  8.3191020491927130 12.3420610691486736
  0.0030880730841357  1.6477046528136179 14.7234828939606235
  2.8819073131542119  1.6477043080598677 14.7234823818394567
  5.7698799264885201  1.6483070253211392 14.7101488495029500
  8.6550977615943552  1.6483069179516032 14.7101491428702182
  1.4424974929951129  4.1398770215970622 14.7261380295258313
  4.3266499382520776  4.1489343611217793 14.7114718349590845
  7.2124888544761676  4.1493535784717634 14.7093888241099240
 10.0983290325658430  4.1489343339757587 14.7114726433015939
  2.8848855164523983  6.6458503593090876 14.7109564525573102
  5.7696241817117162  6.6470066417323883 14.7080715901062664
  8.6553541136191594  6.6470062067168083 14.7080720128048537
 11.5400930789814282  6.6458501362379234 14.7109571135683925
  4.3359079663152356  9.1485484886617101 14.7236955064932555
  7.2124891406106393  9.1487775506911451 14.7222927037269944
 10.0890712396863442  9.1485488414427518 14.7236950488776639
 12.9824804800889382  9.1423899323936482 14.7095458122527205
 -0.0416122232290690 -0.0461230854686684 17.1564642374469756
  2.9266086506033901 -0.0461229746611647 17.1564644364550105
  5.7884663341773761 -0.0256866262897140 17.1497145777841808
  8.6365123836485989 -0.0256873376989726 17.1497143735482851
  1.4424981792314417  2.5219932605976916 17.1510750344792591
  4.3458688359672477  2.4857552248616726 17.1391981558674757
  7.2124890358358025  2.4755406289670003 17.1525640057996718
 10.0791102203097971  2.4857556901734332 17.1391980026451947
  2.8937752963729904  4.9892158498212007 17.1516651965309954
  5.7724331358668257  4.9714626184428976 17.1529086945134672
  8.6525457207700196  4.9714630106726521 17.1529086095929344
 11.5312032839729000  4.9892148027118761 17.1516644659692368
  4.3190446278130104  7.4567874232499767 17.1489662950123218
  7.2124897097037817  7.4514508833007573 17.1370048128901189
 10.1059335198867064  7.4567871638872916 17.1489664388340088
 12.9824814683562746  7.4701524510819706 17.1556186850480650
  1.4424991221090717  0.8161128695307355 19.5289491979651864
