Au Hg
 1.0000000000000000
    11.5399826689644573    0.0000000000000000    0.0000000000000000
     5.7699913344822287    9.9939181505553663    0.0000000000000000
     0.0000000000000000    0.0000000000000000   27.0667672948810178
 Au  Hg 
  64   1
Cartesian
  0.0000220401131588  0.0000121029693967  9.8989905112612337
  2.8849954154641879 -0.0001922478149982  9.8987529091722113
  5.7699692195758132  0.0000126978608352  9.8989905286347923
  8.6549869692872257  0.0001145552320525  9.8990614424041468
  1.4423315790510518  2.4985756416068181  9.8987534393162715
  4.3276598206251995  2.4985757135139433  9.8987528768488513
  7.2124188225880523  2.4985187053289750  9.9001511580583479
 10.0975549110278529  2.4985184585022679  9.9001509725000645
  2.8849957506672017  4.9969336989336925  9.8989900088758507
  5.7699900815043792  4.9968789907537507  9.9001508870747674
  8.6549869473466678  4.9969586281915372  9.9022978880161165
 11.5399842599973912  4.9968785207116095  9.9001513715964151
  4.3275929123952386  7.4953813556393145  9.8990623904562938
  7.2125581779045538  7.4954803251524229  9.9001515442677555
 10.0974158959127749  7.4954802314262068  9.9001511879433259
 12.9823813614873682  7.4953813009807577  9.8990618147522653
  1.4426754726618793  0.8329290563960363 12.3410207774058129
  4.3273158913547443  0.8329288125161656 12.3410215411916688
  7.2115124067609448  0.8338128943472036 12.3421539468437302
 10.0984621345028671  0.8338127753844387 12.3421537073667853
  2.8849957004294202  3.3311008063201188 12.3410207177302897
  5.7692486096755298  3.3308765157371720 12.3424648961819425
  8.6549869186419119  3.3316828070360232 12.3424812641244692
 11.5407256149318744  3.3308770396421075 12.3424641663573080
  4.3278598798663808  5.8284461864064285 12.3421549170399469
  7.2128155760917396  5.8295971417318233 12.3424812952130942
 10.0971586274656318  5.8295972280751069 12.3424812992155282
 12.9821150291523431  5.8284462335584841 12.3421540501213514
  5.7713344109379028  8.3286176845546791 12.3421545115207003
  8.6549874104662283  8.3291234133350223 12.3424650045814168
 11.5386397183779099  8.3286177158854411 12.3421544747392460
 14.4249781374815971  8.3282646975378949 12.3395294811542744
  0.0054950812208350  1.6687872035607256 14.7191698079034570
  2.8849958954304831  1.6656524894602960 14.7228282534004737
  5.7644961916865345  1.6687874649723371 14.7191721009291623
  8.6549870896803238  1.6641062949126664 14.7122377645399105
  1.4425303787700277  4.1578059760300263 14.7191696788353408
  4.3274612657042484  4.1578055094417961 14.7191713938075779
  7.2125573933209015  4.1641710511078029 14.7144470412075741
 10.0974173273492269  4.1641717257264359 14.7144470414141626
  2.8849960255132410  6.6627592458377913 14.7084068851488112
  5.7686537287659601  6.6633846055854438 14.7122394449890415
  8.6549873316641222  6.6625337758523608 14.7144473101892910
 11.5413214633330554  6.6633853091537869 14.7122385218504270
  4.3273663883493265  9.1610175340885487 14.7084067958870630
  7.2179523751183448  9.1642831610827962 14.7191719929335463
 10.0920224827000364  9.1642835778666143 14.7191726398298783
 12.9826084578620016  9.1610177995322797 14.7084072055891930
 -0.0202974010685121 -0.0117193705030390 17.1349677597104666
  2.8849960262680350 -0.0399239407654431 17.1522108698740787
  5.7902895655186324 -0.0117198423522895 17.1349694711113116
  8.6549879457629562 -0.0025076251361309 17.1539843377793915
  1.4079199995379232  2.5184423920211136 17.1522022153220952
  4.3620699611480287  2.5184415835973493 17.1522076979873432
  7.2272285434107246  2.5001626729001947 17.1467062151440928
 10.0827449044915909  2.5001632047216504 17.1467055930323760
  2.8849961763117418  5.0203963666467271 17.1349664696401653
  5.7788205848573950  5.0088801958402440 17.1467062125660803
  8.6549874418895598  4.9969587406177514 17.1582900720749301
 11.5311539830321639  5.0088815310212684 17.1467052339179240
  4.3253244541637645  7.4966903079676781 17.1539857108910141
  7.2065799690628545  7.4818317315800948 17.1467063227324310
 10.1033958816675735  7.4818324139401824 17.1467061905432736
 12.9846516331983199  7.4966905133831538 17.1539846910964116
  2.8849828559910531  1.6656679718733307 19.5342048160650492
