Au Hg
 1.0000000000000000
    11.5399826689644573    0.0000000000000000    0.0000000000000000
     5.7699913344822287    9.9939181505553663    0.0000000000000000
     0.0000000000000000    0.0000000000000000   27.0667672948810178
 Au  Hg 
  64   1
Cartesian
 -0.0000089791451039 -0.0000053360841804  9.8914812906315106
  2.8843868668859014 -0.0000900199272153  9.8933442131560678
  5.7699943882222433 -0.0000752719925427  9.8932936359404859
  8.6556010518990636 -0.0000858018953309  9.8933657249173574
  1.4421156127827679  2.4979971966782801  9.8933440423497512
  4.3271558347852448  2.4982847980851672  9.8946038897568922
  7.2128288393065114  2.4982829669730418  9.8946092505761083
 10.0978650691293410  2.4979881020699644  9.8933605315711137
  2.8849319602167163  4.9969995745050921  9.8932939110105220
  5.7699909001822389  4.9973522753031991  9.8946099908514960
  8.6550507053124743  4.9969965216299306  9.8932928833798979
 11.5399818279667610  4.9965778188397509  9.8964684209961096
  4.3277265052247085  7.4960132662417367  9.8933655745570324
  7.2122530481295435  7.4960123509481926  9.8933602621130010
 10.0971540514875926  7.4956279417226739  9.8964674851507919
 12.9828130654668215  7.4956301007174835  9.8964700807381600
  1.4409183969964126  0.8319115620266621 12.3358125705716173
  4.3266759605652254  0.8326228972645595 12.3318385258655745
  7.2133250581666521  0.8326302896295839 12.3318341784919170
 10.0990513094167049  0.8319095728839233 12.3358261146918569
  2.8844080238231475  3.3306979255991411 12.3318348347694453
  5.7699919400389241  3.3313059120246389 12.3334854302022308
  8.6555766568184485  3.3306799964919898 12.3318289607212019
 11.5399839650700820  3.3278598911495205 12.3332959241895939
  4.3277441357812050  5.8306098172436034 12.3318404287460393
  7.2122395076319936  5.8306088120531285 12.3318379960243316
 10.0974301335424066  5.8297554348999991 12.3323660137823570
 12.9825390236531302  5.8297535840305414 12.3323861167583537
  5.7699840869389174  8.3300790917487042 12.3358308402044212
  8.6520008700806468  8.3299872255343033 12.3332979553854063
 11.5399828667369224  8.3283287861085640 12.3323789931243013
 14.4279775502802892  8.3299950455431020 12.3333021622988888
  0.0000106469042562  1.6581805393560045 14.7166695619959960
  2.8851772268907259  1.6657602337400670 14.7037274362845913
  5.7699907991281796  1.6654605717611199 14.7041191621688370
  8.6548245737272875  1.6657535038068914 14.7037350531368141
  1.4411279855516876  4.1646609478909262 14.7013864365792557
  4.3273372916943726  4.1642396232222065 14.7041380089335281
  7.2126406622852999  4.1642385692331931 14.7041405184134160
 10.0988837243993022  4.1646538711235426 14.7013753043790558
  2.8838671703136587  6.6635581810312789 14.7014389181015694
  5.7699977582987474  6.6624155595342405 14.7037876083804804
  8.6561252323795248  6.6635673003203744 14.7013961642866740
 11.5400082460022002  6.6626263255948350 14.7036000816739740
  4.3339863708093000  9.1648428516202696 14.7167020070865000
  7.2060204383868047  9.1648398909765643 14.7166785856709907
 10.0972554918321116  9.1596383306534257 14.7013796717320311
 12.9827290401151476  9.1596315269376500 14.7014202338960125
  0.0000613595183288  0.0000710555171692 17.1729302201855951
  2.9004788974704070 -0.0003418712771441 17.1337246008358832
  5.7700161836482540  0.0002061048337430 17.1433478873718528
  8.6395821726489146 -0.0003322560525519 17.1337956068272597
  1.4499279314830527  2.5120600641216857 17.1337408872614390
  4.3317483335734286  2.5009433339706453 17.1379743890807674
  7.2082610525218671  2.5009465470761256 17.1379863325319306
 10.0901012249831172  2.5120585586150797 17.1337485547609418
  2.8851904223319074  4.9968782581233189 17.1433517107876305
  5.7700128206282715  4.9920896997009088 17.1380717124226010
  8.6548104556692280  4.9968750492625071 17.1433620511258837
 11.5400077733074617  5.0019835080417927 17.1376941103608154
  4.3194932690304579  7.4822881219722923 17.1338230179568782
  7.2205415102870907  7.4822973796945638 17.1338004143948588
 10.1018522245452349  7.4929499419189440 17.1376950284024225
 12.9781655091922783  7.4929568669964954 17.1378014797380835
 -0.0005626159492345 -0.0005323210258119 20.0510497986736844
